c description: Random 3-CNF over 22 variables and 94 clauses
c generator: CNFgen (0.9.2)
c copyright: (C) 2012-2022 Massimo Lauria <massimo.lauria@uniroma1.it>
c url: https://massimolauria.net/cnfgen
c command line: cnfgen --output CNF_4.28/22_bit_94_932.cnf randkcnf 3 22 94
c
p cnf 22 94
7 -8 -21 0
3 10 11 0
1 -9 -14 0
-2 -17 20 0
2 15 20 0
-6 15 22 0
-3 15 20 0
-1 6 -15 0
-8 -10 -22 0
-1 -11 17 0
4 20 21 0
-7 11 16 0
3 4 -20 0
11 18 20 0
-8 9 20 0
-1 -5 -14 0
14 -16 -19 0
-13 14 17 0
5 -6 19 0
5 -13 -15 0
-7 11 -15 0
10 15 17 0
-14 -15 18 0
-3 10 -14 0
6 7 -12 0
-8 -13 -22 0
2 -4 -7 0
10 11 15 0
4 10 -20 0
2 3 8 0
-2 3 4 0
2 -3 15 0
5 -14 -16 0
-5 -18 -19 0
5 13 -19 0
-4 -19 22 0
-5 7 9 0
4 -6 18 0
2 5 -12 0
-1 3 11 0
-7 -18 22 0
6 -8 -12 0
12 -16 -20 0
3 13 17 0
3 -13 -16 0
7 13 -16 0
6 -15 16 0
-11 13 -21 0
-18 19 -21 0
-6 19 20 0
-3 10 21 0
-1 4 6 0
-1 9 -17 0
6 17 -22 0
10 -11 -14 0
-9 -11 14 0
5 7 -8 0
-1 -7 20 0
2 3 -11 0
-13 16 17 0
4 -6 -18 0
-7 -9 16 0
-2 -8 -21 0
-7 -9 22 0
-2 7 18 0
-1 -18 -19 0
-2 -16 -18 0
-13 -18 21 0
9 -19 -20 0
1 -10 -21 0
4 13 -21 0
1 -3 15 0
-5 11 15 0
2 -10 19 0
2 -7 -22 0
-7 12 14 0
-4 11 22 0
-4 10 19 0
3 -7 19 0
7 -16 -22 0
16 17 -22 0
-2 -12 -21 0
2 -15 -17 0
-1 5 7 0
10 -15 19 0
-1 13 18 0
-4 -8 -19 0
-6 7 21 0
-1 16 20 0
-3 -7 11 0
-10 11 -22 0
-5 -15 22 0
-1 2 -7 0
7 17 18 0
